Version identifier: 22.1.0.0 | 2022-03-09 | 1a383f8ce
CPXPARAM_Threads                                 1
CPXPARAM_MIP_Strategy_VariableSelect             3
CPXPARAM_TimeLimit                               599.99998352900002
1 of 1 MIP starts provided solutions.
MIP start 'm1' defined initial solution with objective 4.0000.
Tried aggregator 2 times.
MIP Presolve eliminated 43 rows and 1 columns.
MIP Presolve added 36 rows and 9 columns.
MIP Presolve modified 5 coefficients.
Aggregator did 9 substitutions.
Reduced MIP has 1810 rows, 7800 columns, and 149728 nonzeros.
Reduced MIP has 7800 binaries, 0 generals, 0 SOSs, and 0 indicators.
Presolve time = 0.14 sec. (178.17 ticks)
Probing time = 0.03 sec. (29.54 ticks)
Tried aggregator 1 time.
Detecting symmetries...
Reduced MIP has 1810 rows, 7800 columns, and 149728 nonzeros.
Reduced MIP has 7800 binaries, 0 generals, 0 SOSs, and 0 indicators.
Presolve time = 0.10 sec. (139.19 ticks)
Probing time = 0.03 sec. (29.54 ticks)
Clique table members: 301.
MIP emphasis: balance optimality and feasibility.
MIP search method: dynamic search.
Parallel mode: none, using 1 thread.
Root relaxation solution time = 0.45 sec. (603.65 ticks)

        Nodes                                         Cuts/
   Node  Left     Objective  IInf  Best Integer    Best Bound    ItCnt     Gap

*     0+    0                            4.0000    45150.0000              --- 
      0     0      300.0000   402        4.0000      300.0000     2428     --- 
*     0+    0                          300.0000      300.0000             0.00%
      0     0        cutoff            300.0000      300.0000     2428    0.00%
Elapsed time = 1.98 sec. (2281.02 ticks, tree = 0.01 MB, solutions = 2)

Root node processing (before b&c):
  Real time             =    1.98 sec. (2281.32 ticks)
Sequential b&c:
  Real time             =    0.00 sec. (0.00 ticks)
                          ------------
Total (root+branch&cut) =    1.98 sec. (2281.32 ticks)
Primal:	300
Dual:	300
Status:	Optimal
Time:	2.01
Sequence:
	4
	20
	24
	6
	8
	16
	13
	16
	12
	17
	4
	8
	7
	4
	18
	7
	17
	7
	6
	18
	2
	7
	0
	6
	16
	5
	19
	0
	21
	8
	21
	3
	11
	4
	18
	12
	9
	23
	6
	18
	16
	8
	7
	17
	7
	17
	16
	22
	3
	24
	14
	5
	17
	16
	3
	20
	0
	19
	24
	24
	14
	0
	24
	6
	23
	9
	17
	21
	1
	4
	1
	1
	13
	1
	1
	3
	21
	2
	5
	5
	13
	2
	1
	16
	9
	0
	1
	13
	16
	8
	1
	11
	12
	23
	11
	6
	23
	4
	10
	16
	9
	3
	22
	4
	11
	21
	6
	12
	1
	4
	1
	12
	14
	1
	1
	8
	15
	1
	1
	4
	12
	12
	3
	23
	23
	13
	23
	23
	2
	24
	15
	23
	2
	10
	12
	2
	20
	18
	8
	21
	16
	3
	1
	24
	19
	12
	5
	8
	17
	14
	19
	14
	19
	0
	19
	19
	16
	0
	14
	23
	14
	14
	0
	14
	1
	19
	0
	24
	17
	7
	18
	17
	11
	7
	17
	11
	11
	10
	23
	15
	11
	6
	21
	0
	9
	9
	16
	2
	20
	9
	22
	21
	14
	20
	15
	0
	20
	15
	10
	18
	11
	23
	5
	15
	11
	23
	3
	21
	15
	15
	10
	17
	6
	6
	16
	6
	17
	0
	20
	11
	11
	21
	11
	12
	19
	18
	0
	19
	15
	9
	21
	22
	11
	15
	21
	22
	11
	7
	17
	11
	6
	10
	24
	3
	17
	20
	2
	9
	12
	20
	8
	20
	3
	19
	10
	9
	17
	14
	24
	0
	9
	16
	9
	2
	18
	21
	2
	2
	2
	4
	22
	5
	19
	9
	15
	10
	24
	6
	8
	15
	24
	14
	0
	21
	6
	10
	24
	4
	5
	5
	8
	20
	12
	11
	20
	5
	9
	8
	1
	4
